200
1000
207
203
202
199
197
196
196
195
195
194
193
192
190
189
189
189
188
186
185
184
182
181
179
179
178
178
177
176
176
174
173
172
171
171
170
169
168
167
166
164
163
161
161
161
161
154
154
154
154
152
150
150
149
149
149
144
143
142
141
141
139
139
139
138
137
137
137
136
136
135
135
134
134
133
133
132
130
128
128
127
126
125
124
122
121
120
119
117
116
115
115
114
113
112
112
112
109
109
109
109
107
106
105
104
102
102
102
101
98
98
98
96
95
95
94
94
91
86
86
85
83
82
82
80
75
73
71
70
70
69
69
68
67
67
66
65
65
63
62
59
59
58
57
57
54
53
52
51
51
50
50
50
48
46
45
44
43
43
43
42
42
41
41
40
39
38
35
35
35
34
33
33
32
32
31
28
27
26
24
24
24
24
22
22
20
19
19
18
17
17
17
17
17
16
16
15
15
13
13
13
